NAME : rnd77_20.tsp
TYPE : TSP
DIMENSION : 20
EDGE_WEIGHT_TYPE : EUC_2D
NODE_COORD_SECTION
0 402 671
1 660 228
2 115 799
3 110 892
4 495 70
5 446 264
6 472 225
7 482 596
8 61 72
9 891 954
10 879 152
11 869 267
12 908 707
13 244 412
14 640 792
15 562 315
16 657 197
17 272 804
18 694 383
19 14 500
